69
1 0 4
2 0 9
2 1 6
3 0 6
4 0 4
4 1 4
4 2 6
4 3 6
5 3 2
5 4 2
6 3 8
6 5 3
7 0 7
7 5 9
8 3 5
8 4 3
8 6 5
9 2 3
9 4 9
9 6 6
10 0 1
10 2 8
10 4 7
10 5 8
10 7 6
10 8 8
10 9 9
11 0 6
11 2 8
11 3 3
11 7 9
11 8 3
12 2 1
12 3 3
12 4 2
12 6 9
12 7 8
12 9 2
12 10 2
13 0 4
13 2 5
13 6 1
13 7 5
13 8 7
13 9 4
13 10 6
13 11 2
13 12 2
14 0 1
14 1 4
14 2 4
14 4 8
14 6 7
14 7 4
14 8 8
14 9 6
14 10 6
14 13 4
15 0 7
15 1 3
15 2 6
15 3 5
15 8 3
15 10 5
15 11 8
15 12 4
15 13 3
16 0 7
16 1 5
16 3 5
16 5 6
16 6 4
16 9 6
16 10 5
16 11 2
16 13 4
17 0 3
17 2 8
17 6 5
17 7 1
17 8 1
17 10 3
17 11 8
17 14 4
17 15 3
18 0 9
18 2 4
18 3 2
18 4 1
18 6 5
18 9 8
18 13 4
18 16 3
19 1 6
19 2 5
19 3 5
19 4 6
19 8 6
19 10 8
19 14 5
19 16 1
19 17 8
19 18 8
20 0 1
20 1 2
20 3 4
20 6 3
20 9 2
20 10 5
20 14 7
20 15 7
20 16 3
20 17 8
21 0 6
21 7 1
21 9 4
21 13 5
21 15 5
21 16 9
21 17 9
21 18 2
22 0 7
22 4 3
22 6 2
22 7 4
22 10 4
22 13 5
22 16 7
22 17 4
22 19 7
22 20 6
22 21 5
23 0 8
23 3 1
23 4 6
23 5 5
23 6 7
23 7 9
23 9 2
23 12 4
23 13 8
23 17 9
23 19 4
23 22 5
24 0 5
24 2 6
24 3 8
24 7 6
24 8 2
24 9 2
24 15 2
24 16 6
24 20 4
25 2 5
25 5 8
25 7 1
25 8 7
25 10 4
25 11 5
25 13 8
25 18 1
25 20 1
25 22 1
25 24 2
26 0 3
26 1 3
26 5 2
26 9 5
26 10 8
26 11 8
26 12 1
26 15 8
26 18 2
26 19 5
27 0 7
27 1 7
27 3 2
27 14 6
27 16 4
27 20 9
27 24 9
27 25 4
27 26 5
28 2 3
28 3 7
28 5 1
28 6 1
28 8 8
28 11 8
28 12 9
28 13 3
28 14 2
28 16 7
28 17 2
28 18 1
28 19 5
28 20 5
28 22 1
28 23 9
28 24 4
28 26 5
29 0 5
29 1 7
29 4 9
29 5 1
29 6 8
29 8 3
29 9 5
29 10 6
29 12 2
29 13 3
29 19 3
29 20 4
29 22 1
29 24 3
29 26 3
30 0 1
30 2 8
30 4 4
30 5 5
30 8 6
30 10 9
30 13 7
30 16 8
30 19 9
30 20 8
30 21 7
30 26 2
30 27 7
30 28 2
30 29 2
31 0 2
31 2 2
31 3 7
31 4 2
31 5 5
31 7 4
31 8 4
31 11 1
31 14 7
31 15 5
31 20 5
31 22 4
31 24 7
31 25 6
31 27 6
31 30 1
32 0 8
32 2 1
32 4 7
32 5 9
32 6 8
32 8 9
32 9 2
32 10 7
32 11 5
32 12 3
32 14 6
32 15 4
32 16 4
32 19 4
32 20 9
32 21 5
32 22 8
32 24 7
32 25 2
32 26 9
32 27 4
32 28 2
32 30 5
33 0 4
33 1 9
33 3 7
33 7 7
33 12 7
33 13 4
33 14 6
33 15 3
33 17 1
33 18 7
33 19 6
33 20 6
33 22 8
33 25 8
33 29 2
33 30 6
33 31 7
33 32 2
34 0 8
34 1 6
34 2 6
34 5 7
34 7 6
34 9 1
34 11 8
34 13 5
34 14 8
34 20 7
34 22 9
34 27 2
34 30 4
34 31 8
34 33 8
35 3 9
35 7 9
35 9 3
35 11 9
35 13 2
35 14 2
35 18 1
35 19 5
35 21 8
35 22 4
35 23 8
35 24 1
35 25 3
35 32 2
35 33 6
36 0 1
36 1 4
36 3 3
36 4 4
36 5 7
36 6 4
36 7 3
36 9 3
36 10 8
36 11 3
36 12 5
36 16 4
36 17 2
36 18 9
36 19 4
36 20 6
36 22 8
36 23 6
36 24 9
36 25 4
36 32 1
37 0 6
37 3 9
37 4 5
37 6 2
37 8 5
37 11 6
37 16 4
37 19 8
37 20 7
37 21 2
37 22 2
37 23 6
37 24 8
37 26 1
37 29 5
37 30 6
37 33 1
37 35 9
37 36 6
38 2 6
38 4 2
38 8 7
38 9 3
38 10 5
38 11 5
38 18 1
38 21 5
38 22 5
38 23 2
38 25 1
38 26 4
38 28 2
38 30 9
38 33 2
38 36 8
38 37 7
39 1 5
39 2 8
39 6 2
39 8 2
39 10 5
39 11 2
39 14 7
39 20 6
39 25 1
39 26 5
39 29 7
39 31 9
39 33 6
39 34 7
39 36 2
39 38 2
40 1 4
40 2 5
40 3 6
40 5 9
40 6 2
40 7 9
40 9 8
40 11 3
40 12 1
40 13 1
40 15 1
40 17 6
40 18 8
40 19 3
40 20 1
40 21 9
40 22 2
40 24 5
40 25 1
40 27 2
40 29 7
40 31 5
40 33 3
40 34 9
40 35 4
40 36 3
40 37 3
40 39 3
41 0 8
41 2 2
41 4 4
41 5 7
41 9 7
41 10 2
41 12 2
41 15 9
41 17 5
41 21 3
41 22 7
41 23 4
41 25 9
41 27 7
41 28 5
41 29 1
41 32 1
41 34 8
41 38 9
41 39 1
41 40 8
42 1 5
42 3 1
42 6 4
42 10 7
42 11 7
42 13 1
42 14 5
42 18 8
42 22 8
42 28 9
42 32 3
42 35 3
42 38 7
42 40 2
42 41 3
43 0 4
43 2 4
43 5 3
43 6 4
43 7 2
43 8 1
43 10 3
43 11 6
43 12 6
43 16 9
43 17 2
43 18 1
43 19 8
43 23 9
43 27 4
43 28 1
43 30 8
43 32 9
43 34 2
43 35 5
43 38 4
43 40 9
43 42 8
44 0 8
44 3 1
44 4 1
44 5 1
44 7 7
44 8 9
44 10 4
44 11 2
44 12 9
44 13 4
44 14 3
44 15 3
44 16 5
44 17 7
44 19 8
44 20 9
44 23 8
44 24 1
44 27 5
44 28 6
44 29 9
44 31 1
44 33 4
44 34 4
44 35 3
44 37 6
44 39 8
44 40 9
44 42 8
44 43 5
45 0 9
45 1 9
45 3 4
45 5 4
45 6 3
45 7 3
45 8 4
45 11 4
45 13 8
45 15 2
45 16 8
45 17 2
45 18 1
45 21 3
45 23 7
45 28 1
45 36 2
45 37 4
45 38 8
45 41 8
45 43 4
46 0 7
46 2 1
46 6 4
46 7 1
46 9 2
46 10 4
46 11 6
46 14 8
46 15 3
46 16 9
46 17 1
46 18 5
46 20 6
46 21 6
46 22 1
46 24 3
46 26 5
46 27 5
46 29 7
46 32 7
46 33 7
46 34 3
46 37 9
46 38 8
46 39 9
46 42 4
46 43 6
46 44 8
47 1 7
47 3 3
47 8 7
47 12 5
47 13 5
47 16 7
47 17 5
47 18 3
47 19 5
47 20 4
47 21 6
47 22 8
47 24 9
47 26 7
47 28 9
47 29 1
47 32 9
47 33 7
47 34 3
47 35 7
47 40 8
47 41 1
47 42 7
47 45 6
47 46 4
48 0 1
48 2 6
48 3 1
48 4 5
48 5 8
48 7 7
48 8 2
48 12 3
48 13 7
48 15 6
48 18 9
48 19 5
48 20 6
48 23 5
48 24 1
48 29 1
48 31 9
48 32 6
48 33 1
48 34 9
48 38 1
48 39 3
48 40 9
48 44 4
48 45 5
48 46 6
48 47 5
49 0 5
49 2 3
49 5 6
49 6 5
49 7 6
49 9 2
49 11 4
49 12 6
49 13 6
49 14 8
49 16 6
49 17 6
49 20 5
49 21 2
49 24 5
49 26 6
49 27 9
49 29 4
49 30 1
49 33 9
49 34 7
49 36 4
49 39 8
49 40 8
49 43 4
49 44 1
49 45 2
49 47 9
49 48 8
50 2 7
50 3 1
50 4 5
50 6 1
50 8 2
50 10 4
50 11 8
50 13 2
50 15 5
50 17 9
50 18 6
50 20 3
50 21 9
50 23 4
50 25 8
50 29 2
50 33 1
50 35 4
50 36 2
50 42 2
50 45 5
50 46 8
50 47 5
50 48 6
50 49 9
51 0 2
51 6 1
51 7 8
51 9 2
51 10 1
51 12 4
51 16 1
51 19 9
51 20 2
51 22 4
51 24 1
51 25 7
51 27 1
51 28 6
51 34 3
51 35 6
51 36 7
51 37 1
51 39 4
51 40 9
51 43 9
51 44 7
51 46 4
51 47 6
51 48 5
52 0 4
52 1 5
52 2 8
52 3 8
52 5 1
52 9 2
52 10 6
52 11 3
52 14 1
52 15 7
52 16 8
52 19 1
52 20 1
52 21 9
52 22 7
52 24 6
52 25 2
52 27 8
52 28 4
52 29 4
52 32 3
52 34 7
52 35 9
52 37 1
52 39 8
52 40 3
52 42 9
52 43 5
52 45 1
52 46 1
52 48 1
53 0 9
53 2 3
53 4 5
53 5 7
53 7 2
53 9 6
53 12 8
53 13 3
53 14 1
53 16 2
53 17 6
53 18 6
53 19 2
53 20 7
53 22 1
53 23 9
53 24 7
53 27 1
53 30 4
53 31 3
53 35 9
53 41 3
53 44 4
53 46 8
53 47 6
53 48 1
53 49 2
53 50 5
53 52 5
54 3 9
54 4 2
54 6 9
54 10 4
54 12 9
54 13 8
54 14 4
54 19 1
54 21 6
54 22 8
54 25 3
54 27 8
54 28 3
54 30 9
54 31 6
54 32 1
54 33 8
54 35 6
54 36 4
54 38 7
54 41 6
54 43 1
54 44 6
54 45 6
54 48 1
54 49 7
54 53 2
55 0 7
55 3 1
55 6 5
55 9 4
55 10 9
55 12 6
55 13 6
55 17 2
55 19 7
55 20 1
55 22 5
55 23 7
55 27 6
55 29 8
55 30 4
55 32 2
55 33 1
55 35 7
55 37 6
55 40 5
55 41 5
55 42 4
55 45 8
55 46 7
55 48 6
55 49 7
55 52 8
55 54 1
56 0 2
56 1 8
56 3 6
56 4 5
56 11 3
56 12 9
56 17 5
56 18 9
56 20 2
56 22 1
56 23 3
56 27 2
56 29 6
56 30 5
56 32 2
56 33 2
56 34 3
56 35 6
56 41 1
56 43 8
56 45 5
56 46 1
56 53 1
56 54 5
57 0 2
57 1 8
57 4 1
57 6 6
57 11 3
57 13 7
57 14 7
57 15 6
57 16 3
57 18 1
57 26 1
57 27 8
57 29 9
57 31 3
57 32 9
57 34 2
57 35 8
57 39 5
57 41 7
57 43 3
57 45 8
57 47 6
57 48 2
57 52 2
57 54 6
57 55 1
58 0 9
58 1 8
58 2 4
58 4 7
58 6 2
58 7 9
58 8 8
58 9 3
58 10 1
58 14 2
58 16 6
58 17 6
58 18 2
58 19 4
58 20 3
58 22 3
58 23 2
58 25 1
58 28 9
58 29 3
58 30 3
58 32 5
58 36 4
58 38 3
58 41 7
58 46 6
58 48 7
58 49 2
58 50 7
58 51 1
58 52 6
58 54 5
58 55 6
58 56 2
59 0 8
59 2 3
59 3 1
59 4 4
59 5 1
59 6 6
59 8 7
59 10 4
59 11 7
59 13 8
59 14 1
59 15 9
59 16 5
59 17 7
59 23 3
59 24 5
59 25 5
59 26 7
59 30 5
59 31 9
59 33 7
59 35 4
59 37 1
59 38 5
59 39 5
59 40 2
59 42 1
59 43 7
59 46 9
59 48 3
59 50 8
59 51 5
59 52 6
59 53 4
59 56 9
59 57 3
60 0 4
60 7 6
60 8 7
60 9 9
60 12 1
60 14 8
60 17 2
60 18 4
60 20 7
60 21 9
60 23 1
60 25 5
60 27 4
60 33 9
60 36 6
60 37 7
60 38 1
60 39 4
60 40 5
60 51 3
60 52 2
60 56 3
61 4 5
61 9 5
61 11 6
61 13 7
61 14 8
61 16 6
61 19 4
61 26 6
61 28 9
61 30 1
61 31 3
61 32 7
61 33 3
61 34 9
61 36 7
61 41 2
61 42 2
61 43 8
61 45 7
61 46 3
61 48 7
61 49 4
61 50 1
61 52 6
61 55 7
61 58 7
62 0 4
62 1 5
62 3 2
62 5 7
62 6 5
62 8 2
62 12 2
62 16 6
62 17 7
62 21 2
62 22 3
62 23 6
62 24 5
62 28 3
62 29 9
62 31 5
62 37 7
62 38 8
62 42 9
62 45 8
62 46 6
62 47 8
62 51 9
62 52 5
62 53 2
62 54 4
62 58 8
62 59 6
62 60 6
62 61 4
63 4 7
63 8 2
63 11 7
63 12 1
63 14 5
63 17 2
63 18 4
63 20 1
63 22 7
63 24 5
63 25 3
63 26 6
63 29 4
63 31 1
63 35 7
63 36 9
63 37 5
63 40 8
63 42 7
63 43 2
63 45 8
63 49 7
63 56 5
63 58 1
63 59 1
63 60 7
63 62 1
64 0 1
64 1 2
64 3 8
64 4 2
64 5 7
64 10 4
64 11 1
64 12 4
64 19 8
64 20 9
64 21 7
64 28 8
64 29 6
64 30 2
64 31 3
64 33 3
64 34 8
64 38 5
64 39 6
64 40 2
64 41 9
64 44 4
64 50 2
64 52 8
64 53 3
64 54 6
64 55 8
64 58 8
64 61 5
65 0 9
65 1 5
65 2 6
65 3 2
65 6 2
65 7 7
65 10 8
65 11 6
65 12 7
65 14 6
65 15 1
65 16 8
65 19 3
65 20 7
65 21 4
65 26 2
65 27 6
65 30 5
65 34 9
65 36 8
65 39 2
65 42 6
65 43 9
65 44 6
65 46 2
65 51 8
65 54 9
65 55 4
65 60 3
65 61 5
66 0 1
66 4 8
66 5 9
66 9 6
66 11 7
66 13 9
66 14 4
66 15 5
66 16 3
66 17 4
66 19 7
66 23 3
66 24 5
66 27 3
66 28 8
66 30 9
66 33 4
66 34 1
66 36 4
66 37 6
66 41 5
66 44 2
66 45 2
66 47 5
66 48 8
66 49 1
66 52 6
66 53 7
66 54 5
66 55 8
66 56 1
66 59 7
66 61 9
66 63 9
66 65 3
67 0 9
67 2 7
67 5 6
67 6 5
67 7 8
67 11 9
67 15 9
67 19 4
67 25 3
67 26 9
67 30 2
67 31 8
67 33 6
67 36 7
67 37 8
67 39 9
67 40 1
67 42 2
67 43 6
67 45 4
67 47 9
67 50 8
67 53 1
67 54 5
67 57 1
67 58 8
67 60 5
67 66 6
68 0 4
68 1 1
68 2 6
68 4 6
68 5 6
68 9 3
68 10 7
68 11 7
68 12 4
68 14 1
68 16 7
68 18 9
68 19 4
68 22 2
68 25 2
68 26 8
68 28 6
68 29 1
68 31 2
68 34 6
68 38 3
68 40 3
68 47 8
68 48 3
68 51 3
68 52 5
68 53 9
68 54 6
68 56 4
68 58 6
68 59 4
68 63 9
68 65 7
